data/solutions/planning/wellformed/hard/weighting/wellformed_hard_instance6_gurobi.sol
Elapsed time: 80.81
Nodes explored: 146102
Nodes left: 4
Relative gap: 0.0
Upper bound: 181578407.0
Lower bound: 181578407
C[0]=177496.0
C[1]=177496.0
C[2]=177496.0
C[3]=177496.0
C[4]=177496.0
C[5]=177496.0
C[6]=177496.0
C[7]=177496.0
C[8]=177496.0
C[9]=177495.0
y[0]=7
y[1]=2
y[2]=0
y[3]=3
y[4]=1
y[5]=1
y[6]=1
y[7]=7
y[8]=8
y[9]=3
y[10]=6
y[11]=3
y[12]=9
y[13]=5
y[14]=2
y[15]=8
y[16]=9
y[17]=6
y[18]=0
y[19]=4
y[20]=4
y[21]=8
y[22]=2
y[23]=3
y[24]=1
y[25]=3
y[26]=3
y[27]=8
y[28]=8
y[29]=3
y[30]=3
y[31]=0
y[32]=6
y[33]=8
y[34]=6
y[35]=0
y[36]=2
y[37]=1
y[38]=2
y[39]=1
y[40]=3
y[41]=0
y[42]=6
y[43]=6
y[44]=6
y[45]=6
y[46]=3
y[47]=2
y[48]=8
y[49]=7
y[50]=7
y[51]=6
y[52]=6
y[53]=1
y[54]=0
y[55]=8
y[56]=3
y[57]=6
y[58]=7
y[59]=0
y[60]=7
y[61]=1
y[62]=1
y[63]=8
y[64]=5
y[65]=3
y[66]=3
y[67]=3
y[68]=5
y[69]=2
y[70]=1
y[71]=6
y[72]=7
y[73]=3
y[74]=7
y[75]=3
y[76]=3
y[77]=3
y[78]=8
y[79]=9
y[80]=0
y[81]=2
y[82]=5
y[83]=6
y[84]=5
y[85]=4
y[86]=9
y[87]=6
y[88]=6
y[89]=6
y[90]=3
y[91]=0
y[92]=1
y[93]=8
y[94]=1
y[95]=2
y[96]=7
y[97]=2
y[98]=3
y[99]=0
y[100]=1
y[101]=9
y[102]=6
y[103]=8
y[104]=1
y[105]=1
y[106]=8
y[107]=3
y[108]=4
y[109]=5
y[110]=7
y[111]=9
y[112]=1
y[113]=9
y[114]=6
y[115]=1
y[116]=8
y[117]=1
y[118]=1
y[119]=5
y[120]=3
y[121]=4
y[122]=2
y[123]=8
y[124]=7
y[125]=3
y[126]=5
y[127]=2
y[128]=3
y[129]=3
y[130]=7
y[131]=7
y[132]=5
y[133]=9
y[134]=8
y[135]=6
y[136]=3
y[137]=2
y[138]=4
y[139]=9
y[140]=4
y[141]=4
y[142]=0
y[143]=5
y[144]=9
y[145]=2
y[146]=4
y[147]=7
y[148]=9
y[149]=0
y[150]=8
y[151]=8
y[152]=0
y[153]=2
y[154]=5
y[155]=8
y[156]=5
y[157]=5
y[158]=4
y[159]=4
y[160]=1
y[161]=4
y[162]=8
y[163]=6
y[164]=9
y[165]=1
y[166]=8
y[167]=4
y[168]=8
y[169]=1
y[170]=6
y[171]=4
y[172]=8
y[173]=5
y[174]=1
y[175]=9
y[176]=8
y[177]=8
y[178]=4
y[179]=7
y[180]=4
y[181]=8
y[182]=7
y[183]=1
y[184]=6
y[185]=9
y[186]=8
y[187]=3
y[188]=0
y[189]=0
y[190]=1
y[191]=7
y[192]=1
y[193]=1
y[194]=1
y[195]=1
y[196]=6
y[197]=6
y[198]=6
y[199]=3
