data/solutions/planning/wellformed/hard/weighting/wellformed_hard_instance6_gurobi.log

Gurobi 6.5.2 (linux64) logging started Sat Mar  3 18:49:44 2018

Changed value of parameter LogFile to data/solutions/planning/wellformed/hard/weighting/wellformed_hard_instance6_gurobi.log
   Prev: gurobi.log  Default: 
Changed value of parameter Threads to 1
   Prev: 0  Min: 0  Max: 1024  Default: 0
Optimize a model with 220 rows, 2011 columns and 4029 nonzeros
Coefficient statistics:
  Matrix range    [1e+00, 2e+04]
  Objective range [1e+00, 5e+02]
  Bounds range    [1e+00, 1e+00]
  RHS range       [1e+00, 1e+00]
Presolve removed 3 rows and 3 columns
Presolve time: 0.01s
Presolved: 217 rows, 2008 columns, 4024 nonzeros
Variable types: 0 continuous, 2008 integer (2000 binary)
Found heuristic solution: objective 9.087790e+08

Root relaxation: objective 1.815783e+08, 307 iterations, 0.00 seconds

    Nodes    |    Current Node    |     Objective Bounds      |     Work
 Expl Unexpl |  Obj  Depth IntInf | Incumbent    BestBd   Gap | It/Node Time

     0     0 1.8158e+08    0   24 9.0878e+08 1.8158e+08  80.0%     -    0s
H    0     0                    1.965717e+08 1.8158e+08  7.63%     -    0s
     0     0 1.8158e+08    0   36 1.9657e+08 1.8158e+08  7.63%     -    0s
     0     0 1.8158e+08    0   36 1.9657e+08 1.8158e+08  7.63%     -    0s
     0     0 1.8158e+08    0   36 1.9657e+08 1.8158e+08  7.63%     -    0s
     0     0 1.8158e+08    0   29 1.9657e+08 1.8158e+08  7.63%     -    0s
H    0     0                    1.847350e+08 1.8158e+08  1.71%     -    0s
     0     2 1.8158e+08    0   29 1.8473e+08 1.8158e+08  1.71%     -    0s
H  697   655                    1.846991e+08 1.8158e+08  1.69%   2.8    0s
H  703   626                    1.834111e+08 1.8158e+08  1.00%   2.8    0s
H  704   594                    1.833902e+08 1.8158e+08  0.99%   5.3    0s
H  731   583                    1.833695e+08 1.8158e+08  0.98%   5.4    0s
H  993   605                    1.832682e+08 1.8158e+08  0.92%   8.3    1s
H 1191   690                    1.832211e+08 1.8158e+08  0.90%   8.3    1s
H 1558   864                    1.831887e+08 1.8158e+08  0.88%   7.7    1s
H 3035  2027                    1.831881e+08 1.8158e+08  0.88%   5.7    2s
H 3962  2816                    1.823902e+08 1.8158e+08  0.45%   5.1    2s
H 5550  4302                    1.823900e+08 1.8158e+08  0.44%   4.7    3s
H 7007  5602                    1.823866e+08 1.8158e+08  0.44%   4.6    4s
H 8347  6842                    1.823322e+08 1.8158e+08  0.41%   4.4    4s
  8525  6993     cutoff  674      1.8233e+08 1.8158e+08  0.41%   4.3    5s
H10622  8880                    1.822133e+08 1.8158e+08  0.35%   4.1    6s
H11228  9383                    1.822124e+08 1.8158e+08  0.35%   4.0    6s
 16678 13912 1.8158e+08  526   13 1.8221e+08 1.8158e+08  0.35%   4.0   10s
H19788 15766                    1.821907e+08 1.8158e+08  0.34%   3.9   11s
H20129 16019                    1.821755e+08 1.8158e+08  0.33%   3.9   11s
H21177 16641                    1.821430e+08 1.8158e+08  0.31%   3.9   11s
H21508 16836                    1.821339e+08 1.8158e+08  0.31%   3.9   11s
H22174 14301                    1.818698e+08 1.8158e+08  0.16%   3.8   12s
 25107 14515 infeasible  696      1.8187e+08 1.8158e+08  0.16%   4.1   15s
H25675 14561                    1.818693e+08 1.8158e+08  0.16%   4.1   15s
H27402 14750                    1.818691e+08 1.8158e+08  0.16%   4.2   17s
H27935 14771                    1.818689e+08 1.8158e+08  0.16%   4.2   17s
H28408 14842                    1.818685e+08 1.8158e+08  0.16%   4.3   18s
H28858 14921                    1.818649e+08 1.8158e+08  0.16%   4.3   18s
H29841 15048                    1.818646e+08 1.8158e+08  0.16%   4.3   19s
 30944 15128 1.8158e+08  696   11 1.8186e+08 1.8158e+08  0.16%   4.3   20s
H31741 15159                    1.818425e+08 1.8158e+08  0.15%   4.3   20s
H32242 15173                    1.818357e+08 1.8158e+08  0.14%   4.4   21s
H32314 15186                    1.818355e+08 1.8158e+08  0.14%   4.4   21s
H34536 15575                    1.818322e+08 1.8158e+08  0.14%   4.3   22s
H35217 15660                    1.818308e+08 1.8158e+08  0.14%   4.3   22s
H35530 15715                    1.818300e+08 1.8158e+08  0.14%   4.3   23s
H35618 15720                    1.818294e+08 1.8158e+08  0.14%   4.3   23s
H36365 15755                    1.818285e+08 1.8158e+08  0.14%   4.3   23s
H36707 15395                    1.818249e+08 1.8158e+08  0.14%   4.4   23s
H38428 15571                    1.818238e+08 1.8158e+08  0.13%   4.4   24s
H38475 15584                    1.818237e+08 1.8158e+08  0.13%   4.4   24s
H38655 15604                    1.818224e+08 1.8158e+08  0.13%   4.4   24s
 38673 15615 infeasible  694      1.8182e+08 1.8158e+08  0.13%   4.4   25s
H39751 15840                    1.818224e+08 1.8158e+08  0.13%   4.4   25s
H46042 16089                    1.818161e+08 1.8158e+08  0.13%   4.4   29s
 47190 16013 infeasible  691      1.8182e+08 1.8158e+08  0.13%   4.4   30s
H47792 16038                    1.818159e+08 1.8158e+08  0.13%   4.5   30s
H47878 16042                    1.818147e+08 1.8158e+08  0.13%   4.5   30s
H53586 15991                    1.818079e+08 1.8158e+08  0.13%   4.5   33s
H54066 16019                    1.818077e+08 1.8158e+08  0.13%   4.5   34s
H55348 15994                    1.817995e+08 1.8158e+08  0.12%   4.5   34s
 55711 15973 1.8158e+08  699   12 1.8180e+08 1.8158e+08  0.12%   4.5   35s
H56771 15960                    1.817952e+08 1.8158e+08  0.12%   4.6   35s
H58458 14582                    1.817827e+08 1.8158e+08  0.11%   4.6   36s
H58580 14598                    1.817827e+08 1.8158e+08  0.11%   4.6   36s
 63919 14559 1.8158e+08  701   12 1.8178e+08 1.8158e+08  0.11%   4.6   40s
H64239 14537                    1.817652e+08 1.8158e+08  0.10%   4.6   40s
H65209 14580                    1.817619e+08 1.8158e+08  0.10%   4.6   40s
H66150 14570                    1.817586e+08 1.8158e+08  0.10%   4.6   41s
H66247 14576                    1.817548e+08 1.8158e+08  0.10%   4.6   41s
H66428 14583                    1.817503e+08 1.8158e+08  0.09%   4.6   41s
H66551 14567                    1.817501e+08 1.8158e+08  0.09%   4.7   41s
H66588 14554                    1.817439e+08 1.8158e+08  0.09%   4.7   41s
H67070 14552                    1.817408e+08 1.8158e+08  0.09%   4.7   41s
H67468 14580                    1.817372e+08 1.8158e+08  0.09%   4.7   42s
H67873 14577                    1.817363e+08 1.8158e+08  0.09%   4.7   42s
H67900 14576                    1.817343e+08 1.8158e+08  0.09%   4.7   42s
H68420 14541                    1.817269e+08 1.8158e+08  0.08%   4.7   42s
H68884 14510                    1.817268e+08 1.8158e+08  0.08%   4.7   43s
 72101 14525 1.8158e+08  689   10 1.8173e+08 1.8158e+08  0.08%   4.7   45s
H72656 14520                    1.817268e+08 1.8158e+08  0.08%   4.7   45s
H78107 15760                    1.817254e+08 1.8158e+08  0.08%   4.7   48s
 82091 15736 1.8158e+08  676    8 1.8173e+08 1.8158e+08  0.08%   4.6   50s
 92407 16397 infeasible  701      1.8173e+08 1.8158e+08  0.08%   4.5   55s
 104783 19831 1.8158e+08  636    9 1.8173e+08 1.8158e+08  0.08%   4.4   60s
 117680 19963 1.8158e+08  676    6 1.8173e+08 1.8158e+08  0.08%   4.3   65s
 127662 20038 1.8158e+08  680    6 1.8173e+08 1.8158e+08  0.08%   4.2   70s
 136666 19978 1.8158e+08  671    6 1.8173e+08 1.8158e+08  0.08%   4.2   75s
 144192 19966 1.8158e+08  680    6 1.8173e+08 1.8158e+08  0.08%   4.2   80s
*146102     4             687    1.815784e+08 1.8158e+08  0.00%   4.2   80s

Cutting planes:
  Gomory: 1
  MIR: 1
  Flow cover: 1

Explored 146103 nodes (612271 simplex iterations) in 80.70 seconds
Thread count was 1 (of 8 available processors)

Optimal solution found (tolerance 1.00e-04)
Best objective 1.815784070000e+08, best bound 1.815784070000e+08, gap 0.0%
